37 38
27
3 3 3 32
3 4 0 13
3 5 25 10
3 6 25 32
3 7 7 0
3 8 22 12
3 9 30 0
3 11 3 7
3 12 22 0
3 13 0 0
3 14 3 18
3 17 25 15
3 18 22 20
3 21 0 17
4 3 28 34
4 4 26 6
4 5 6 29
4 6 3 0
4 10 33 0
4 22 6 7
4 24 33 10
5 3 3 35
5 4 32 34
5 6 25 0
5 10 28 10
5 14 28 20
12 37 10 0
